(set-info :source |printed by MathSAT|)
(declare-fun |!{$(in_main#0)<N>}| () Int)
(declare-fun |!{$(in_main#0)<N>}.next| () Int)
(declare-fun |!{$(in_main#0)<&array>}| () Int)
(declare-fun |!{$(in_main#0)<&array>}.next| () Int)
(declare-fun |!{$(in_main#0)<begin>}| () Int)
(declare-fun |!{$(in_main#0)<begin>}.next| () Int)
(declare-fun |!{$(in_main#0)<end>}| () Int)
(declare-fun |!{$(in_main#0)<end>}.next| () Int)
(declare-fun |!{$(in_main#0)<k>}| () Int)
(declare-fun |!{$(in_main#0)<k>}.next| () Int)
(declare-fun |!{$(in_main#0)<k#1>}| () Int)
(declare-fun |!{$(in_main#0)<k#1>}.next| () Int)
(declare-fun |!{%memaddr}| () Int)
(declare-fun |!{%memaddr}.next| () Int)
(declare-fun |!{%mem.0}| () (Array Int Int))
(declare-fun |!{%mem.0}.next| () (Array Int Int))
(declare-fun |!{$(in_main#0)<$(in___VERIFIER_nondet_int#1)<h#<__VERIFIER_nondet_int.return>>>}| () Int)
(declare-fun |!{$(in_main#0)<$(in___VERIFIER_nondet_int#3)<h#<__VERIFIER_nondet_int.return>>>}| () Int)
(declare-fun |!{$(in_main#0)<$(in___VERIFIER_nondet_int#4)<h#<__VERIFIER_nondet_int.return>>>}| () Int)
(declare-fun |!{$(in_main#0)<$(in___VERIFIER_nondet_int#6)<h#<__VERIFIER_nondet_int.return>>>}| () Int)
(declare-fun !pc () Int)
(declare-fun !pc.next () Int)
(declare-fun |%{$(in_main#0)<k#1>}#1| () Int)
(declare-fun |%{%mem.0}#3| () (Array Int Int))
(define-fun .def_56 () Int (! !pc :next !pc.next))
(define-fun .def_59 () Bool (! (= .def_56 2) :init true))
(define-fun .def_227 () Bool (= .def_56 83))
(define-fun .def_161 () Bool (= !pc.next 138))
(define-fun .def_230 () Bool (and .def_161 .def_227))
(define-fun .def_223 () Bool (= |!{%mem.0}.next| |%{%mem.0}#3|))
(define-fun .def_12 () Int (! |!{$(in_main#0)<begin>}| :next |!{$(in_main#0)<begin>}.next|))
(define-fun .def_220 () Bool (= .def_12 |!{$(in_main#0)<k#1>}.next|))
(define-fun .def_10 () Int (! |!{$(in_main#0)<&array>}| :next |!{$(in_main#0)<&array>}.next|))
(define-fun .def_120 () Bool (= .def_10 |!{$(in_main#0)<&array>}.next|))
(define-fun .def_8 () Int (! |!{$(in_main#0)<N>}| :next |!{$(in_main#0)<N>}.next|))
(define-fun .def_118 () Bool (= .def_8 |!{$(in_main#0)<N>}.next|))
(define-fun .def_134 () Bool (and .def_118 .def_120))
(define-fun .def_122 () Bool (= .def_12 |!{$(in_main#0)<begin>}.next|))
(define-fun .def_135 () Bool (and .def_122 .def_134))
(define-fun .def_14 () Int (! |!{$(in_main#0)<end>}| :next |!{$(in_main#0)<end>}.next|))
(define-fun .def_124 () Bool (= .def_14 |!{$(in_main#0)<end>}.next|))
(define-fun .def_136 () Bool (and .def_124 .def_135))
(define-fun .def_16 () Int (! |!{$(in_main#0)<k>}| :next |!{$(in_main#0)<k>}.next|))
(define-fun .def_126 () Bool (= .def_16 |!{$(in_main#0)<k>}.next|))
(define-fun .def_137 () Bool (and .def_126 .def_136))
(define-fun .def_221 () Bool (and .def_137 .def_220))
(define-fun .def_20 () Int (! |!{%memaddr}| :next |!{%memaddr}.next|))
(define-fun .def_130 () Bool (= .def_20 |!{%memaddr}.next|))
(define-fun .def_222 () Bool (and .def_130 .def_221))
(define-fun .def_224 () Bool (and .def_222 .def_223))
(define-fun .def_22 () (Array Int Int) (! |!{%mem.0}| :next |!{%mem.0}.next|))
(define-fun .def_207 () Bool (= .def_22 |%{%mem.0}#3|))
(define-fun .def_178 () Int (* (- 1) .def_14))
(define-fun .def_179 () Int (+ .def_12 .def_178))
(define-fun .def_180 () Bool (<= .def_179 (- 1)))
(define-fun .def_205 () Bool (not .def_180))
(define-fun .def_208 () Bool (and .def_205 .def_207))
(define-fun .def_182 () Int (+ .def_10 .def_14))
(define-fun .def_189 () Int (+ .def_182 (- 2)))
(define-fun .def_183 () Int (+ .def_182 (- 1)))
(define-fun .def_184 () (Array Int Int) (store .def_22 .def_183 0))
(define-fun .def_190 () (Array Int Int) (store .def_184 .def_189 0))
(define-fun .def_199 () Bool (= .def_190 |%{%mem.0}#3|))
(define-fun .def_187 () Bool (<= .def_179 (- 2)))
(define-fun .def_201 () Bool (and .def_187 .def_199))
(define-fun .def_198 () Bool (= .def_184 |%{%mem.0}#3|))
(define-fun .def_191 () Bool (not .def_187))
(define-fun .def_200 () Bool (and .def_191 .def_198))
(define-fun .def_202 () Bool (or .def_200 .def_201))
(define-fun .def_203 () Bool (and .def_180 .def_202))
(define-fun .def_209 () Bool (or .def_203 .def_208))
(define-fun .def_225 () Bool (and .def_209 .def_224))
(define-fun .def_172 () Bool (<= .def_8 .def_16))
(define-fun .def_226 () Bool (and .def_172 .def_225))
(define-fun .def_231 () Bool (and .def_226 .def_230))
(define-fun .def_104 () Bool (= !pc.next 83))
(define-fun .def_228 () Bool (and .def_104 .def_227))
(define-fun .def_174 () Int (+ .def_10 .def_16))
(define-fun .def_175 () (Array Int Int) (store .def_22 .def_174 |!{$(in_main#0)<$(in___VERIFIER_nondet_int#6)<h#<__VERIFIER_nondet_int.return>>>}|))
(define-fun .def_217 () Bool (= |!{%mem.0}.next| .def_175))
(define-fun .def_211 () Int (* (- 1) |!{$(in_main#0)<k>}.next|))
(define-fun .def_212 () Int (+ .def_16 .def_211))
(define-fun .def_213 () Bool (= .def_212 (- 1)))
(define-fun .def_214 () Bool (and .def_136 .def_213))
(define-fun .def_18 () Int (! |!{$(in_main#0)<k#1>}| :next |!{$(in_main#0)<k#1>}.next|))
(define-fun .def_128 () Bool (= .def_18 |!{$(in_main#0)<k#1>}.next|))
(define-fun .def_215 () Bool (and .def_128 .def_214))
(define-fun .def_216 () Bool (and .def_130 .def_215))
(define-fun .def_218 () Bool (and .def_216 .def_217))
(define-fun .def_173 () Bool (not .def_172))
(define-fun .def_219 () Bool (and .def_173 .def_218))
(define-fun .def_229 () Bool (and .def_219 .def_228))
(define-fun .def_232 () Bool (or .def_229 .def_231))
(define-fun .def_165 () Bool (= !pc.next 0))
(define-fun .def_156 () Bool (= .def_56 138))
(define-fun .def_166 () Bool (and .def_156 .def_165))
(define-fun .def_107 () Bool (<= .def_14 .def_18))
(define-fun .def_147 () Bool (and .def_107 .def_118))
(define-fun .def_148 () Bool (and .def_120 .def_147))
(define-fun .def_149 () Bool (and .def_122 .def_148))
(define-fun .def_150 () Bool (and .def_124 .def_149))
(define-fun .def_151 () Bool (and .def_126 .def_150))
(define-fun .def_152 () Bool (and .def_128 .def_151))
(define-fun .def_153 () Bool (and .def_130 .def_152))
(define-fun .def_99 () Bool (= .def_22 |!{%mem.0}.next|))
(define-fun .def_154 () Bool (and .def_99 .def_153))
(define-fun .def_167 () Bool (and .def_154 .def_166))
(define-fun .def_162 () Bool (and .def_156 .def_161))
(define-fun .def_139 () Int (* (- 1) |!{$(in_main#0)<k#1>}.next|))
(define-fun .def_140 () Int (+ .def_18 .def_139))
(define-fun .def_141 () Bool (= .def_140 (- 1)))
(define-fun .def_142 () Bool (and .def_137 .def_141))
(define-fun .def_143 () Bool (and .def_130 .def_142))
(define-fun .def_144 () Bool (and .def_99 .def_143))
(define-fun .def_109 () Int (+ .def_10 .def_18))
(define-fun .def_110 () Int (select .def_22 .def_109))
(define-fun .def_111 () Bool (= .def_110 0))
(define-fun .def_112 () Int (ite .def_111 1 0))
(define-fun .def_113 () Bool (= .def_112 0))
(define-fun .def_114 () Bool (not .def_113))
(define-fun .def_145 () Bool (and .def_114 .def_144))
(define-fun .def_108 () Bool (not .def_107))
(define-fun .def_146 () Bool (and .def_108 .def_145))
(define-fun .def_163 () Bool (and .def_146 .def_162))
(define-fun .def_158 () Bool (= !pc.next 158))
(define-fun .def_159 () Bool (and .def_156 .def_158))
(define-fun .def_119 () Bool (and .def_113 .def_118))
(define-fun .def_121 () Bool (and .def_119 .def_120))
(define-fun .def_123 () Bool (and .def_121 .def_122))
(define-fun .def_125 () Bool (and .def_123 .def_124))
(define-fun .def_127 () Bool (and .def_125 .def_126))
(define-fun .def_129 () Bool (and .def_127 .def_128))
(define-fun .def_131 () Bool (and .def_129 .def_130))
(define-fun .def_132 () Bool (and .def_99 .def_131))
(define-fun .def_133 () Bool (and .def_108 .def_132))
(define-fun .def_160 () Bool (and .def_133 .def_159))
(define-fun .def_164 () Bool (or .def_160 .def_163))
(define-fun .def_168 () Bool (or .def_164 .def_167))
(define-fun .def_105 () Bool (and .def_59 .def_104))
(define-fun .def_97 () Bool (= |!{%memaddr}.next| 2))
(define-fun .def_95 () Bool (= |!{$(in_main#0)<k#1>}.next| |%{$(in_main#0)<k#1>}#1|))
(define-fun .def_93 () Bool (= |!{$(in_main#0)<k>}.next| 0))
(define-fun .def_91 () Bool (= |!{$(in_main#0)<end>}.next| |!{$(in_main#0)<$(in___VERIFIER_nondet_int#4)<h#<__VERIFIER_nondet_int.return>>>}|))
(define-fun .def_89 () Bool (= |!{$(in_main#0)<begin>}.next| |!{$(in_main#0)<$(in___VERIFIER_nondet_int#3)<h#<__VERIFIER_nondet_int.return>>>}|))
(define-fun .def_87 () Bool (= |!{$(in_main#0)<&array>}.next| 1))
(define-fun .def_86 () Bool (= |!{$(in_main#0)<N>}.next| |!{$(in_main#0)<$(in___VERIFIER_nondet_int#1)<h#<__VERIFIER_nondet_int.return>>>}|))
(define-fun .def_88 () Bool (and .def_86 .def_87))
(define-fun .def_90 () Bool (and .def_88 .def_89))
(define-fun .def_92 () Bool (and .def_90 .def_91))
(define-fun .def_94 () Bool (and .def_92 .def_93))
(define-fun .def_96 () Bool (and .def_94 .def_95))
(define-fun .def_98 () Bool (and .def_96 .def_97))
(define-fun .def_100 () Bool (and .def_98 .def_99))
(define-fun .def_80 () Bool (<= |!{$(in_main#0)<$(in___VERIFIER_nondet_int#4)<h#<__VERIFIER_nondet_int.return>>>}| |!{$(in_main#0)<$(in___VERIFIER_nondet_int#1)<h#<__VERIFIER_nondet_int.return>>>}|))
(define-fun .def_78 () Bool (<= |!{$(in_main#0)<$(in___VERIFIER_nondet_int#3)<h#<__VERIFIER_nondet_int.return>>>}| |!{$(in_main#0)<$(in___VERIFIER_nondet_int#4)<h#<__VERIFIER_nondet_int.return>>>}|))
(define-fun .def_77 () Bool (<= 0 |!{$(in_main#0)<$(in___VERIFIER_nondet_int#3)<h#<__VERIFIER_nondet_int.return>>>}|))
(define-fun .def_79 () Bool (and .def_77 .def_78))
(define-fun .def_81 () Bool (and .def_79 .def_80))
(define-fun .def_82 () Int (ite .def_81 1 0))
(define-fun .def_83 () Bool (= .def_82 0))
(define-fun .def_84 () Bool (not .def_83))
(define-fun .def_101 () Bool (and .def_84 .def_100))
(define-fun .def_72 () Bool (<= |!{$(in_main#0)<$(in___VERIFIER_nondet_int#1)<h#<__VERIFIER_nondet_int.return>>>}| 0))
(define-fun .def_73 () Bool (not .def_72))
(define-fun .def_74 () Int (ite .def_73 1 0))
(define-fun .def_75 () Bool (= .def_74 0))
(define-fun .def_76 () Bool (not .def_75))
(define-fun .def_102 () Bool (and .def_76 .def_101))
(define-fun .def_106 () Bool (and .def_102 .def_105))
(define-fun .def_169 () Bool (or .def_106 .def_168))
(define-fun .def_233 () Bool (! (or .def_169 .def_232) :trans true))
(define-fun .def_170 () Bool (= .def_56 158))
(define-fun .def_234 () Bool (! (not .def_170) :invar-property 0 :invar-property-name ||))
(assert true)
